num_offers = 20;
num_halls = 10;
start=[23,20,37,35,16,19,58,12,40,56,16,30,42,47,30,23,35,28,5,23];
end=[51,56,66,81,41,20,64,50,54,78,73,87,55,71,69,45,88,77,78,66];
price=[2334,2391,1183,2311,594,78,204,908,1218,2299,5052,5086,1145,1144,3605,1036,2281,4701,2265,2473];
requirement=[399,811,596,259,431,852,937,288,701,581,293,335,541,707,558,466,754,290,864,878];
capacity=[201,503,749,827,782,730,888,950,509,826];
